<instance format="XCSP3" type="COP">
  <variables>
    <var id="b" note="number of banana cakes"> 0..99 </var>
    <var id="c" note="number of chocolate cakes"> 0..99 </var>
  </variables>
  <constraints>
    <sum note="using the 4000 grams of flour">
      <list> b c </list>
      <coeffs> 250 200 </coeffs>
      <condition> (le,4000) </condition>
    </sum>
    <sum note="using the 6 bananas">
      <list> b </list>
      <coeffs> 2 </coeffs>
      <condition> (le,6) </condition>
    </sum>
    <sum note="using the 2000 grams of sugar">
      <list> b c </list>
      <coeffs> 75 150 </coeffs>
      <condition> (le,2000) </condition>
    </sum>
    <sum note="using the 500 grams of butter">
      <list> b c </list>
      <coeffs> 100 150 </coeffs>
      <condition> (le,500) </condition>
    </sum>
    <sum note="using the 500 grams of cocoa">
      <list> c </list>
      <coeffs> 75 </coeffs>
      <condition> (le,500) </condition>
    </sum>
   </constraints>
  <objectives>
    <maximize type="sum" note="maximizing the profit (400 and 450 cents for each banana and chocolate cake, respectively)"> 
      <list> b c </list>
      <coeffs> 400 450 </coeffs>
    </maximize>
  </objectives>
</instance>
